
Gurobi 7.5.1 (linux64, Python) logging started Fri Jan 19 13:43:36 2018


Gurobi 7.5.2 (linux64, Python) logging started Fri Jan 19 13:48:29 2018

Academic license - for non-commercial use only

Gurobi 7.5.1 (linux64, Python) logging started Fri Jan 19 13:50:04 2018


Gurobi 7.5.1 (linux64, Python) logging started Fri Jan 19 13:55:20 2018


Gurobi 7.5.1 (linux64, Python) logging started Fri Jan 19 14:03:05 2018


Gurobi 7.5.1 (linux64, Python) logging started Fri Jan 19 14:10:25 2018


Gurobi 7.5.1 (linux64, Python) logging started Fri Jan 19 14:12:52 2018


Gurobi 7.5.1 (linux64, Python) logging started Fri Jan 19 14:15:28 2018


Gurobi 7.5.1 (linux64, Python) logging started Fri Jan 19 14:15:59 2018


Gurobi 7.5.1 (linux64, Python) logging started Fri Jan 19 14:30:21 2018

Academic license - for non-commercial use only

Gurobi 7.5.1 (linux64, Python) logging started Fri Jan 19 14:39:38 2018

Academic license - for non-commercial use only

Gurobi 7.5.1 (linux64, Python) logging started Fri Jan 19 14:41:25 2018

Academic license - for non-commercial use only

Gurobi 7.5.1 (linux64, Python) logging started Fri Jan 19 14:42:27 2018

Academic license - for non-commercial use only

Gurobi 7.5.1 (linux64, Python) logging started Fri Jan 19 14:43:53 2018

Academic license - for non-commercial use only
Optimize a model with 2 rows, 28 columns and 0 nonzeros
Variable types: 0 continuous, 28 integer (0 binary)
Coefficient statistics:
  Matrix range     [0e+00, 0e+00]
  Objective range  [9e+00, 1e+03]
  Bounds range     [1e+00, 1e+00]
  RHS range        [1e+00, 1e+00]
Presolve time: 0.01s

Explored 0 nodes (0 simplex iterations) in 0.05 seconds
Thread count was 1 (of 4 available processors)

Solution count 0

Model is infeasible
Best objective -, best bound -, gap -

Gurobi 7.5.1 (linux64, Python) logging started Fri Jan 19 14:45:20 2018

Academic license - for non-commercial use only
Optimize a model with 2 rows, 28 columns and 0 nonzeros
Variable types: 0 continuous, 28 integer (0 binary)
Coefficient statistics:
  Matrix range     [0e+00, 0e+00]
  Objective range  [9e+00, 1e+03]
  Bounds range     [1e+00, 1e+00]
  RHS range        [1e+00, 1e+00]
Presolve time: 0.00s

Explored 0 nodes (0 simplex iterations) in 0.00 seconds
Thread count was 1 (of 4 available processors)

Solution count 0

Model is infeasible
Best objective -, best bound -, gap -

Gurobi 7.5.1 (linux64, Python) logging started Fri Jan 19 14:45:39 2018

Academic license - for non-commercial use only
Optimize a model with 2 rows, 28 columns and 0 nonzeros
Variable types: 0 continuous, 28 integer (0 binary)
Coefficient statistics:
  Matrix range     [0e+00, 0e+00]
  Objective range  [9e+00, 1e+03]
  Bounds range     [1e+00, 1e+00]
  RHS range        [1e+00, 1e+00]
Presolve time: 0.00s

Explored 0 nodes (0 simplex iterations) in 0.00 seconds
Thread count was 1 (of 4 available processors)

Solution count 0

Model is infeasible
Best objective -, best bound -, gap -

Gurobi 7.5.1 (linux64, Python) logging started Fri Jan 19 14:46:35 2018

Academic license - for non-commercial use only
Optimize a model with 2 rows, 28 columns and 0 nonzeros
Variable types: 0 continuous, 28 integer (0 binary)
Coefficient statistics:
  Matrix range     [0e+00, 0e+00]
  Objective range  [9e+00, 1e+03]
  Bounds range     [1e+00, 1e+00]
  RHS range        [1e+00, 1e+00]
Presolve time: 0.00s

Explored 0 nodes (0 simplex iterations) in 0.00 seconds
Thread count was 1 (of 4 available processors)

Solution count 0

Model is infeasible
Best objective -, best bound -, gap -

Gurobi 7.5.1 (linux64, Python) logging started Fri Jan 19 14:48:37 2018

Academic license - for non-commercial use only
Optimize a model with 2 rows, 28 columns and 0 nonzeros
Variable types: 0 continuous, 28 integer (0 binary)
Coefficient statistics:
  Matrix range     [0e+00, 0e+00]
  Objective range  [9e+00, 1e+03]
  Bounds range     [1e+00, 1e+00]
  RHS range        [1e+00, 1e+00]
Presolve time: 0.00s

Explored 0 nodes (0 simplex iterations) in 0.00 seconds
Thread count was 1 (of 4 available processors)

Solution count 0

Model is infeasible
Best objective -, best bound -, gap -

Gurobi 7.5.1 (linux64, Python) logging started Fri Jan 19 14:53:38 2018

Academic license - for non-commercial use only
Optimize a model with 2 rows, 28 columns and 0 nonzeros
Variable types: 0 continuous, 28 integer (0 binary)
Coefficient statistics:
  Matrix range     [0e+00, 0e+00]
  Objective range  [9e+00, 1e+03]
  Bounds range     [1e+00, 1e+00]
  RHS range        [1e+00, 1e+00]
Presolve time: 0.00s

Explored 0 nodes (0 simplex iterations) in 0.00 seconds
Thread count was 1 (of 4 available processors)

Solution count 0

Model is infeasible
Best objective -, best bound -, gap -

Gurobi 7.5.1 (linux64, Python) logging started Fri Jan 19 14:54:14 2018

Academic license - for non-commercial use only
Optimize a model with 2 rows, 28 columns and 0 nonzeros
Variable types: 0 continuous, 28 integer (0 binary)
Coefficient statistics:
  Matrix range     [0e+00, 0e+00]
  Objective range  [9e+00, 1e+03]
  Bounds range     [1e+00, 1e+00]
  RHS range        [1e+00, 1e+00]
Presolve time: 0.00s

Explored 0 nodes (0 simplex iterations) in 0.00 seconds
Thread count was 1 (of 4 available processors)

Solution count 0

Model is infeasible
Best objective -, best bound -, gap -

Gurobi 7.5.1 (linux64, Python) logging started Fri Jan 19 14:56:19 2018

Academic license - for non-commercial use only
Optimize a model with 2 rows, 28 columns and 0 nonzeros
Variable types: 0 continuous, 28 integer (0 binary)
Coefficient statistics:
  Matrix range     [0e+00, 0e+00]
  Objective range  [9e+00, 1e+03]
  Bounds range     [1e+00, 1e+00]
  RHS range        [1e+00, 1e+00]
Presolve time: 0.00s

Explored 0 nodes (0 simplex iterations) in 0.00 seconds
Thread count was 1 (of 4 available processors)

Solution count 0

Model is infeasible
Best objective -, best bound -, gap -

Gurobi 7.5.1 (linux64, Python) logging started Fri Jan 19 14:57:54 2018

Academic license - for non-commercial use only
Optimize a model with 2 rows, 28 columns and 0 nonzeros
Variable types: 0 continuous, 28 integer (0 binary)
Coefficient statistics:
  Matrix range     [0e+00, 0e+00]
  Objective range  [9e+00, 1e+03]
  Bounds range     [1e+00, 1e+00]
  RHS range        [1e+00, 1e+00]
Presolve time: 0.00s

Explored 0 nodes (0 simplex iterations) in 0.00 seconds
Thread count was 1 (of 4 available processors)

Solution count 0

Model is infeasible
Best objective -, best bound -, gap -

Gurobi 7.5.1 (linux64, Python) logging started Fri Jan 19 15:06:34 2018

Academic license - for non-commercial use only
Optimize a model with 2 rows, 28 columns and 0 nonzeros
Variable types: 0 continuous, 28 integer (0 binary)
Coefficient statistics:
  Matrix range     [0e+00, 0e+00]
  Objective range  [9e+00, 1e+03]
  Bounds range     [1e+00, 1e+00]
  RHS range        [1e+00, 1e+00]
Presolve time: 0.00s

Explored 0 nodes (0 simplex iterations) in 0.00 seconds
Thread count was 1 (of 4 available processors)

Solution count 0

Model is infeasible
Best objective -, best bound -, gap -

Gurobi 7.5.1 (linux64, Python) logging started Fri Jan 19 15:08:57 2018

Academic license - for non-commercial use only
Optimize a model with 2 rows, 28 columns and 0 nonzeros
Variable types: 0 continuous, 28 integer (0 binary)
Coefficient statistics:
  Matrix range     [0e+00, 0e+00]
  Objective range  [9e+00, 1e+03]
  Bounds range     [1e+00, 1e+00]
  RHS range        [1e+00, 1e+00]
Presolve time: 0.00s

Explored 0 nodes (0 simplex iterations) in 0.00 seconds
Thread count was 1 (of 4 available processors)

Solution count 0

Model is infeasible
Best objective -, best bound -, gap -

Gurobi 7.5.1 (linux64, Python) logging started Fri Jan 19 15:10:23 2018

Academic license - for non-commercial use only
Optimize a model with 2 rows, 28 columns and 0 nonzeros
Variable types: 0 continuous, 28 integer (0 binary)
Coefficient statistics:
  Matrix range     [0e+00, 0e+00]
  Objective range  [9e+00, 1e+03]
  Bounds range     [1e+00, 1e+00]
  RHS range        [1e+00, 1e+00]
Presolve time: 0.00s

Explored 0 nodes (0 simplex iterations) in 0.00 seconds
Thread count was 1 (of 4 available processors)

Solution count 0

Model is infeasible
Best objective -, best bound -, gap -

Gurobi 7.5.1 (linux64, Python) logging started Fri Jan 19 15:10:53 2018

Academic license - for non-commercial use only
Optimize a model with 2 rows, 28 columns and 0 nonzeros
Variable types: 0 continuous, 28 integer (0 binary)
Coefficient statistics:
  Matrix range     [0e+00, 0e+00]
  Objective range  [9e+00, 1e+03]
  Bounds range     [1e+00, 1e+00]
  RHS range        [1e+00, 1e+00]
Presolve time: 0.00s

Explored 0 nodes (0 simplex iterations) in 0.00 seconds
Thread count was 1 (of 4 available processors)

Solution count 0

Model is infeasible
Best objective -, best bound -, gap -

Gurobi 7.5.1 (linux64, Python) logging started Fri Jan 19 15:11:28 2018

Academic license - for non-commercial use only
Optimize a model with 2 rows, 28 columns and 0 nonzeros
Variable types: 0 continuous, 28 integer (0 binary)
Coefficient statistics:
  Matrix range     [0e+00, 0e+00]
  Objective range  [9e+00, 1e+03]
  Bounds range     [1e+00, 1e+00]
  RHS range        [1e+00, 1e+00]
Presolve time: 0.00s

Explored 0 nodes (0 simplex iterations) in 0.00 seconds
Thread count was 1 (of 4 available processors)

Solution count 0

Model is infeasible
Best objective -, best bound -, gap -

Gurobi 7.5.1 (linux64, Python) logging started Fri Jan 19 15:11:50 2018

Academic license - for non-commercial use only
Optimize a model with 2 rows, 28 columns and 0 nonzeros
Variable types: 0 continuous, 28 integer (0 binary)
Coefficient statistics:
  Matrix range     [0e+00, 0e+00]
  Objective range  [9e+00, 1e+03]
  Bounds range     [1e+00, 1e+00]
  RHS range        [1e+00, 1e+00]
Presolve time: 0.00s

Explored 0 nodes (0 simplex iterations) in 0.00 seconds
Thread count was 1 (of 4 available processors)

Solution count 0

Model is infeasible
Best objective -, best bound -, gap -

Gurobi 7.5.1 (linux64, Python) logging started Fri Jan 19 15:14:04 2018

Academic license - for non-commercial use only
Optimize a model with 2 rows, 28 columns and 0 nonzeros
Variable types: 0 continuous, 28 integer (0 binary)
Coefficient statistics:
  Matrix range     [0e+00, 0e+00]
  Objective range  [9e+00, 1e+03]
  Bounds range     [1e+00, 1e+00]
  RHS range        [1e+00, 1e+00]
Presolve time: 0.00s

Explored 0 nodes (0 simplex iterations) in 0.00 seconds
Thread count was 1 (of 4 available processors)

Solution count 0

Model is infeasible
Best objective -, best bound -, gap -

Gurobi 7.5.1 (linux64, Python) logging started Fri Jan 19 15:14:24 2018

Academic license - for non-commercial use only
Optimize a model with 2 rows, 28 columns and 0 nonzeros
Variable types: 0 continuous, 28 integer (0 binary)
Coefficient statistics:
  Matrix range     [0e+00, 0e+00]
  Objective range  [9e+00, 1e+03]
  Bounds range     [1e+00, 1e+00]
  RHS range        [1e+00, 1e+00]
Presolve time: 0.00s

Explored 0 nodes (0 simplex iterations) in 0.00 seconds
Thread count was 1 (of 4 available processors)

Solution count 0

Model is infeasible
Best objective -, best bound -, gap -

Gurobi 7.5.1 (linux64, Python) logging started Fri Jan 19 15:16:46 2018

Academic license - for non-commercial use only
Optimize a model with 2 rows, 28 columns and 56 nonzeros
Variable types: 0 continuous, 28 integer (0 binary)
Coefficient statistics:
  Matrix range     [1e+00, 1e+00]
  Objective range  [9e+00, 1e+03]
  Bounds range     [1e+00, 1e+00]
  RHS range        [6e+02, 6e+02]
Found heuristic solution: objective 7180

Explored 0 nodes (0 simplex iterations) in 0.00 seconds
Thread count was 1 (of 4 available processors)

Solution count 1: 7180 

Optimal solution found (tolerance 1.00e-04)
Best objective 7.180000000000e+03, best bound 7.180000000000e+03, gap 0.0000%

Gurobi 7.5.1 (linux64, Python) logging started Fri Jan 19 15:17:30 2018

Academic license - for non-commercial use only
Optimize a model with 2 rows, 28 columns and 56 nonzeros
Variable types: 0 continuous, 28 integer (0 binary)
Coefficient statistics:
  Matrix range     [1e+00, 1e+00]
  Objective range  [9e+00, 1e+03]
  Bounds range     [1e+00, 1e+00]
  RHS range        [6e+02, 6e+02]
Found heuristic solution: objective 7180

Explored 0 nodes (0 simplex iterations) in 0.00 seconds
Thread count was 1 (of 4 available processors)

Solution count 1: 7180 

Optimal solution found (tolerance 1.00e-04)
Best objective 7.180000000000e+03, best bound 7.180000000000e+03, gap 0.0000%

Gurobi 7.5.1 (linux64, Python) logging started Fri Jan 19 15:18:17 2018

Academic license - for non-commercial use only
Optimize a model with 2 rows, 28 columns and 56 nonzeros
Variable types: 0 continuous, 28 integer (0 binary)
Coefficient statistics:
  Matrix range     [1e+00, 1e+00]
  Objective range  [9e+00, 1e+03]
  Bounds range     [1e+00, 1e+00]
  RHS range        [6e+02, 6e+02]
Found heuristic solution: objective 7180

Explored 0 nodes (0 simplex iterations) in 0.00 seconds
Thread count was 1 (of 4 available processors)

Solution count 1: 7180 

Optimal solution found (tolerance 1.00e-04)
Best objective 7.180000000000e+03, best bound 7.180000000000e+03, gap 0.0000%

Gurobi 7.5.1 (linux64, Python) logging started Fri Jan 19 15:23:25 2018

Academic license - for non-commercial use only
Optimize a model with 2 rows, 28 columns and 47 nonzeros
Variable types: 0 continuous, 28 integer (0 binary)
Coefficient statistics:
  Matrix range     [1e+01, 2e+02]
  Objective range  [9e+00, 1e+03]
  Bounds range     [1e+00, 1e+00]
  RHS range        [6e+02, 6e+02]
Found heuristic solution: objective 3502
Presolve removed 0 rows and 1 columns
Presolve time: 0.00s
Presolved: 2 rows, 27 columns, 46 nonzeros
Variable types: 0 continuous, 27 integer (26 binary)

Root relaxation: objective 6.411125e+03, 4 iterations, 0.00 seconds

    Nodes    |    Current Node    |     Objective Bounds      |     Work
 Expl Unexpl |  Obj  Depth IntInf | Incumbent    BestBd   Gap | It/Node Time

     0     0 6411.12500    0    2 3502.00000 6411.12500  83.1%     -    0s
H    0     0                    6363.0000000 6411.12500  0.76%     -    0s
     0     0 6390.75000    0    3 6363.00000 6390.75000  0.44%     -    0s
     0     0 6390.75000    0    2 6363.00000 6390.75000  0.44%     -    0s
     0     0 6379.33333    0    2 6363.00000 6379.33333  0.26%     -    0s

Cutting planes:
  Gomory: 1
  Cover: 1
  MIR: 1

Explored 1 nodes (13 simplex iterations) in 0.06 seconds
Thread count was 4 (of 4 available processors)

Solution count 2: 6363 3502 

Optimal solution found (tolerance 1.00e-04)
Best objective 6.363000000000e+03, best bound 6.363000000000e+03, gap 0.0000%

Gurobi 7.5.1 (linux64, Python) logging started Fri Jan 19 15:26:11 2018

Academic license - for non-commercial use only
Optimize a model with 2 rows, 28 columns and 0 nonzeros
Variable types: 0 continuous, 28 integer (0 binary)
Coefficient statistics:
  Matrix range     [0e+00, 0e+00]
  Objective range  [9e+00, 1e+03]
  Bounds range     [1e+00, 1e+00]
  RHS range        [1e+00, 1e+00]
Presolve time: 0.00s

Explored 0 nodes (0 simplex iterations) in 0.00 seconds
Thread count was 1 (of 4 available processors)

Solution count 0

Model is infeasible
Best objective -, best bound -, gap -

Gurobi 7.5.1 (linux64, Python) logging started Fri Jan 19 15:26:18 2018

Academic license - for non-commercial use only
Optimize a model with 2 rows, 28 columns and 0 nonzeros
Variable types: 0 continuous, 28 integer (0 binary)
Coefficient statistics:
  Matrix range     [0e+00, 0e+00]
  Objective range  [9e+00, 1e+03]
  Bounds range     [1e+00, 1e+00]
  RHS range        [1e+00, 1e+00]
Presolve time: 0.00s

Explored 0 nodes (0 simplex iterations) in 0.00 seconds
Thread count was 1 (of 4 available processors)

Solution count 0

Model is infeasible
Best objective -, best bound -, gap -

Gurobi 7.5.1 (linux64, Python) logging started Fri Jan 19 15:27:21 2018

Academic license - for non-commercial use only

Gurobi 7.5.1 (linux64, Python) logging started Fri Jan 19 15:27:45 2018

Academic license - for non-commercial use only
Optimize a model with 2 rows, 28 columns and 47 nonzeros
Variable types: 0 continuous, 28 integer (0 binary)
Coefficient statistics:
  Matrix range     [1e+01, 2e+02]
  Objective range  [9e+00, 1e+03]
  Bounds range     [1e+00, 1e+00]
  RHS range        [5e+02, 6e+02]
Found heuristic solution: objective 3332
Presolve removed 0 rows and 1 columns
Presolve time: 0.00s
Presolved: 2 rows, 27 columns, 46 nonzeros
Variable types: 0 continuous, 27 integer (26 binary)

Root relaxation: objective 6.310000e+03, 3 iterations, 0.00 seconds

    Nodes    |    Current Node    |     Objective Bounds      |     Work
 Expl Unexpl |  Obj  Depth IntInf | Incumbent    BestBd   Gap | It/Node Time

*    0     0               0    6310.0000000 6310.00000  0.00%     -    0s

Explored 0 nodes (3 simplex iterations) in 0.00 seconds
Thread count was 4 (of 4 available processors)

Solution count 2: 6310 3332 

Optimal solution found (tolerance 1.00e-04)
Best objective 6.310000000000e+03, best bound 6.310000000000e+03, gap 0.0000%

Gurobi 7.5.1 (linux64, Python) logging started Fri Jan 19 15:27:57 2018

Academic license - for non-commercial use only
Optimize a model with 2 rows, 28 columns and 47 nonzeros
Variable types: 0 continuous, 28 integer (0 binary)
Coefficient statistics:
  Matrix range     [1e+01, 2e+02]
  Objective range  [9e+00, 1e+03]
  Bounds range     [1e+00, 1e+00]
  RHS range        [5e+02, 6e+02]
Found heuristic solution: objective 3332
Presolve removed 0 rows and 1 columns
Presolve time: 0.00s
Presolved: 2 rows, 27 columns, 46 nonzeros
Variable types: 0 continuous, 27 integer (26 binary)

Root relaxation: objective 6.310000e+03, 3 iterations, 0.00 seconds

    Nodes    |    Current Node    |     Objective Bounds      |     Work
 Expl Unexpl |  Obj  Depth IntInf | Incumbent    BestBd   Gap | It/Node Time

*    0     0               0    6310.0000000 6310.00000  0.00%     -    0s

Explored 0 nodes (3 simplex iterations) in 0.00 seconds
Thread count was 4 (of 4 available processors)

Solution count 2: 6310 3332 

Optimal solution found (tolerance 1.00e-04)
Best objective 6.310000000000e+03, best bound 6.310000000000e+03, gap 0.0000%

Gurobi 7.5.1 (linux64, Python) logging started Fri Jan 19 15:34:00 2018

Academic license - for non-commercial use only

Gurobi 7.5.1 (linux64, Python) logging started Fri Jan 19 15:35:34 2018

Academic license - for non-commercial use only
Optimize a model with 3 rows, 28 columns and 48 nonzeros
Variable types: 0 continuous, 28 integer (0 binary)
Coefficient statistics:
  Matrix range     [1e+00, 2e+02]
  Objective range  [9e+00, 1e+03]
  Bounds range     [1e+00, 1e+00]
  RHS range        [1e+00, 6e+02]
Found heuristic solution: objective 3332
Presolve removed 1 rows and 2 columns
Presolve time: 0.00s
Presolved: 2 rows, 26 columns, 44 nonzeros
Variable types: 0 continuous, 26 integer (25 binary)

Root relaxation: objective 6.170400e+03, 4 iterations, 0.00 seconds

    Nodes    |    Current Node    |     Objective Bounds      |     Work
 Expl Unexpl |  Obj  Depth IntInf | Incumbent    BestBd   Gap | It/Node Time

     0     0 6170.40000    0    2 3332.00000 6170.40000  85.2%     -    0s
H    0     0                    5907.0000000 6170.40000  4.46%     -    0s
H    0     0                    5944.0000000 6170.40000  3.81%     -    0s
     0     0 5988.25000    0    2 5944.00000 5988.25000  0.74%     -    0s
     0     0 5960.33333    0    1 5944.00000 5960.33333  0.27%     -    0s

Explored 1 nodes (7 simplex iterations) in 0.00 seconds
Thread count was 4 (of 4 available processors)

Solution count 3: 5944 5907 3332 

Optimal solution found (tolerance 1.00e-04)
Best objective 5.944000000000e+03, best bound 5.944000000000e+03, gap 0.0000%
